n = 31;
lu = [|-230, 122
      |-905, 238
      |-492, 766
      |-900, 879
      |-165, 845
      |-829, -215
      |-334, -93
      |-768, -263
      |86, 235
      |-644, 723
      |-764, -400
      |-251, 289
      |-958, 629
      |-644, 580
      |-785, 111
      |-836, 679
      |-439, -205
      |169, 554
      |482, 756
      |-839, 678
      |-169, 951
      |-620, 244
      |342, 828
      |-364, -327
      |-319, -180
      |-540, -526
      |-34, 135
      |-594, 282
      |-693, 212
      |-159, 510
      |-93, 152|];
